
Gurobi 8.1.0 (mac64, Python) logging started Wed Jan 23 14:29:30 2019


Gurobi 8.1.0 (mac64, Python) logging started Wed Jan 23 14:41:35 2019

Academic license - for non-commercial use only
Parameter UpdateMode unchanged
   Value: 1  Min: 0  Max: 1  Default: 1
